Maximize
F - ff - gg

Subject to
F - f1 - f2 - f3 - f4 = 0
f1 - 20X3 - 40X9 - 30X59 - 10X118 - 40X130 - 30X150 - 40X173 = 0
f2 - 10.0Y3 - 20.0Y9 - 20.0Y130 - 15.0Y150 - 20.0Y173 = 0
f3 - 3.0Z118 - 9.0Z150 = 0
f4 - 6.0V59 - 2.0V118 = 0

ff - 0.009539s3 - 0.009539s9 - 0.009539s59 - 0.009539s118 - 0.009539s130 - 0.009539s150 - 0.009539s173 
- 0.009539t3 - 0.009539t9 - 0.009539t130 - 0.009539t150 - 0.009539t173 
- 0.009539u118 - 0.009539u150 
- 0.009539r59 - 0.009539r118 
= 0
gg - 2.316578Y3 - 1.141158Y9 - 1.099666Y130 - 3.147865Y150 - 1.514660Y173 
- 2.720622Z118 - 2.063865Z150 
- 2.821408V59 - 1.916622V118 = 0

n1 - X3 - X9 - X59 - X118 - X130 - X150 - X173 = 0
n2 - Y3 - Y9 - Y130 - Y150 - Y173 = 0
n3 - Z118 - Z150 = 0
n4 - V59 - V118 = 0

X3 + Y3 <= 1
X9 + Y9 <= 1
X130 + Y130 <= 1
X150 + Y150 <= 1
X173 + Y173 <= 1

X118 + Z118 <= 1
X150 + Z150 <= 1

X59 + V59 <= 1
X118 + V118 <= 1

x108x3x1 + x108x59x1 + x108x118x1 + x108x150x1 + x108x173x1 
+ y108y3y1 + y108y150y1 + y108y173y1 
<= 2


x19x3x1 + x19x59x1 + x19x118x1 + x19x150x1 + x19x173x1 
+ y19y3y1 + y19y150y1 + y19y173y1 
<= 2
x5x3x1 + x5x59x1 + x5x118x1 + x5x150x1 + x5x173x1 
+ y5y3y1 + y5y150y1 + y5y173y1 
<= 2



x164x3x1 + x164x59x1 + x164x118x1 + x164x150x1 + x164x173x1 
+ y164y3y1 + y164y150y1 + y164y173y1 
<= 2





x62x9x2 + x62x118x2 + x62x130x2 
+ y62y9y2 + y62y130y2 
<= 1



x115x9x2 + x115x118x2 + x115x130x2 
+ y115y9y2 + y115y130y2 
<= 2
x194x9x2 + x194x118x2 + x194x130x2 
+ y194y9y2 + y194y130y2 
<= 2


x167x9x2 + x167x118x2 + x167x130x2 
+ y167y9y2 + y167y130y2 
<= 1
x76x9x2 + x76x118x2 + x76x130x2 
+ y76y9y2 + y76y130y2 
<= 1
x134x9x2 + x134x118x2 + x134x130x2 
+ y134y9y2 + y134y130y2 
<= 1


x62x3x3 + x62x173x3 
+ y62y3y3 + y62y173y3 
<= 1
x52x3x3 + x52x173x3 
+ y52y3y3 + y52y173y3 
<= 2




x55x3x3 + x55x173x3 
+ y55y3y3 + y55y173y3 
<= 2


x76x3x3 + x76x173x3 
+ y76y3y3 + y76y173y3 
<= 1
x134x3x3 + x134x173x3 
+ y134y3y3 + y134y173y3 
<= 1
x98x3x3 + x98x173x3 
+ y98y3y3 + y98y173y3 
<= 1
x108x3x1 + x108x59x1 + x108x118x1 + x108x150x1 + x108x173x1 
+ z108z118z1 + z108z150z1 
<= 2


x19x3x1 + x19x59x1 + x19x118x1 + x19x150x1 + x19x173x1 
+ z19z118z1 + z19z150z1 
<= 2
x5x3x1 + x5x59x1 + x5x118x1 + x5x150x1 + x5x173x1 
+ z5z118z1 + z5z150z1 
<= 2



x164x3x1 + x164x59x1 + x164x118x1 + x164x150x1 + x164x173x1 
+ z164z118z1 + z164z150z1 
<= 2





x62x9x2 + x62x118x2 + x62x130x2 
+ z62z118z2 
<= 1



x115x9x2 + x115x118x2 + x115x130x2 
+ z115z118z2 
<= 2
x194x9x2 + x194x118x2 + x194x130x2 
+ z194z118z2 
<= 2


x167x9x2 + x167x118x2 + x167x130x2 
+ z167z118z2 
<= 1
x76x9x2 + x76x118x2 + x76x130x2 
+ z76z118z2 
<= 1
x134x9x2 + x134x118x2 + x134x130x2 
+ z134z118z2 
<= 1


x62x3x3 + x62x173x3 

<= 1
x52x3x3 + x52x173x3 

<= 2




x55x3x3 + x55x173x3 

<= 2


x76x3x3 + x76x173x3 

<= 1
x134x3x3 + x134x173x3 

<= 1
x98x3x3 + x98x173x3 

<= 1
x108x3x1 + x108x59x1 + x108x118x1 + x108x150x1 + x108x173x1 
+ v108v59v1 + v108v118v1 
<= 2


x19x3x1 + x19x59x1 + x19x118x1 + x19x150x1 + x19x173x1 
+ v19v59v1 + v19v118v1 
<= 2
x5x3x1 + x5x59x1 + x5x118x1 + x5x150x1 + x5x173x1 
+ v5v59v1 + v5v118v1 
<= 2



x164x3x1 + x164x59x1 + x164x118x1 + x164x150x1 + x164x173x1 
+ v164v59v1 + v164v118v1 
<= 2





x62x9x2 + x62x118x2 + x62x130x2 
+ v62v118v2 
<= 1



x115x9x2 + x115x118x2 + x115x130x2 
+ v115v118v2 
<= 2
x194x9x2 + x194x118x2 + x194x130x2 
+ v194v118v2 
<= 2


x167x9x2 + x167x118x2 + x167x130x2 
+ v167v118v2 
<= 1
x76x9x2 + x76x118x2 + x76x130x2 
+ v76v118v2 
<= 1
x134x9x2 + x134x118x2 + x134x130x2 
+ v134v118v2 
<= 1


x62x3x3 + x62x173x3 

<= 1
x52x3x3 + x52x173x3 

<= 2




x55x3x3 + x55x173x3 

<= 2


x76x3x3 + x76x173x3 

<= 1
x134x3x3 + x134x173x3 

<= 1
x98x3x3 + x98x173x3 

<= 1
x108x3x1 + x19x3x1 + x5x3x1 + x164x3x1 
+ y108y3y1 + y19y3y1 + y5y3y1 + y164y3y1 + y59y3y1 + y118y3y1 
- x3x173x1 
- y3y173y1 - y3y0y1
= 0
x62x3x3 + x52x3x3 + x55x3x3 + x76x3x3 + x134x3x3 + x98x3x3 
+ y62y3y3 + y52y3y3 + y55y3y3 + y76y3y3 + y134y3y3 + y98y3y3 
- x3x173x3 
- y3y173y3 - y3y0y3
= 0

x62x9x2 + x115x9x2 + x194x9x2 + x167x9x2 + x76x9x2 + x134x9x2 
+ y62y9y2 + y115y9y2 + y194y9y2 + y167y9y2 + y76y9y2 + y134y9y2 + y118y9y2 
= 0

x108x59x1 + x19x59x1 + x5x59x1 + x164x59x1 
- x59x118x1 
- y59y3y1 - y59y150y1 - y59y173y1 - y59y0y1
= 0

x108x118x1 + x19x118x1 + x5x118x1 + x164x118x1 + x59x118x1 + x150x118x1 
- y118y3y1 - y118y150y1 - y118y173y1 - y118y0y1
= 0
x62x118x2 + x115x118x2 + x194x118x2 + x167x118x2 + x76x118x2 + x134x118x2 
- y118y9y2 - y118y130y2 - y118y0y2
= 0

x62x130x2 + x115x130x2 + x194x130x2 + x167x130x2 + x76x130x2 + x134x130x2 
+ y62y130y2 + y115y130y2 + y194y130y2 + y167y130y2 + y76y130y2 + y134y130y2 + y118y130y2 
= 0

x108x150x1 + x19x150x1 + x5x150x1 + x164x150x1 
+ y108y150y1 + y19y150y1 + y5y150y1 + y164y150y1 + y59y150y1 + y118y150y1 
- x150x118x1 
- y150y173y1 - y150y0y1
= 0

x108x173x1 + x19x173x1 + x5x173x1 + x164x173x1 + x3x173x1 
+ y108y173y1 + y19y173y1 + y5y173y1 + y164y173y1 + y3y173y1 + y59y173y1 + y118y173y1 + y150y173y1 
= 0
x62x173x3 + x52x173x3 + x55x173x3 + x76x173x3 + x134x173x3 + x98x173x3 + x3x173x3 
+ y62y173y3 + y52y173y3 + y55y173y3 + y76y173y3 + y134y173y3 + y98y173y3 + y3y173y3 
= 0


x108x3x1 + x19x3x1 + x5x3x1 + x164x3x1 
- x3x173x1 
- z3z118z1 - z3z150z1 - z3z0z1
= 0
x62x3x3 + x52x3x3 + x55x3x3 + x76x3x3 + x134x3x3 + x98x3x3 
- x3x173x3 
= 0

x62x9x2 + x115x9x2 + x194x9x2 + x167x9x2 + x76x9x2 + x134x9x2 
- z9z118z2 - z9z0z2
= 0

x108x59x1 + x19x59x1 + x5x59x1 + x164x59x1 
- x59x118x1 
- z59z118z1 - z59z150z1 - z59z0z1
= 0

x108x118x1 + x19x118x1 + x5x118x1 + x164x118x1 + x59x118x1 + x150x118x1 
+ z108z118z1 + z19z118z1 + z5z118z1 + z164z118z1 + z3z118z1 + z59z118z1 + z150z118z1 + z173z118z1 
= 0
x62x118x2 + x115x118x2 + x194x118x2 + x167x118x2 + x76x118x2 + x134x118x2 
+ z62z118z2 + z115z118z2 + z194z118z2 + z167z118z2 + z76z118z2 + z134z118z2 + z9z118z2 + z130z118z2 
= 0

x62x130x2 + x115x130x2 + x194x130x2 + x167x130x2 + x76x130x2 + x134x130x2 
- z130z118z2 - z130z0z2
= 0

x108x150x1 + x19x150x1 + x5x150x1 + x164x150x1 
+ z108z150z1 + z19z150z1 + z5z150z1 + z164z150z1 + z3z150z1 + z59z150z1 + z173z150z1 
- x150x118x1 
- z150z118z1 - z150z0z1
= 0

x108x173x1 + x19x173x1 + x5x173x1 + x164x173x1 + x3x173x1 
- z173z118z1 - z173z150z1 - z173z0z1
= 0
x62x173x3 + x52x173x3 + x55x173x3 + x76x173x3 + x134x173x3 + x98x173x3 + x3x173x3 
= 0


x108x3x1 + x19x3x1 + x5x3x1 + x164x3x1 
- x3x173x1 
- v3v59v1 - v3v118v1 - v3v0v1
= 0
x62x3x3 + x52x3x3 + x55x3x3 + x76x3x3 + x134x3x3 + x98x3x3 
- x3x173x3 
= 0

x62x9x2 + x115x9x2 + x194x9x2 + x167x9x2 + x76x9x2 + x134x9x2 
- v9v118v2 - v9v0v2
= 0

x108x59x1 + x19x59x1 + x5x59x1 + x164x59x1 
+ v108v59v1 + v19v59v1 + v5v59v1 + v164v59v1 + v3v59v1 + v150v59v1 + v173v59v1 
- x59x118x1 
- v59v118v1 - v59v0v1
= 0

x108x118x1 + x19x118x1 + x5x118x1 + x164x118x1 + x59x118x1 + x150x118x1 
+ v108v118v1 + v19v118v1 + v5v118v1 + v164v118v1 + v3v118v1 + v59v118v1 + v150v118v1 + v173v118v1 
= 0
x62x118x2 + x115x118x2 + x194x118x2 + x167x118x2 + x76x118x2 + x134x118x2 
+ v62v118v2 + v115v118v2 + v194v118v2 + v167v118v2 + v76v118v2 + v134v118v2 + v9v118v2 + v130v118v2 
= 0

x62x130x2 + x115x130x2 + x194x130x2 + x167x130x2 + x76x130x2 + x134x130x2 
- v130v118v2 - v130v0v2
= 0

x108x150x1 + x19x150x1 + x5x150x1 + x164x150x1 
- x150x118x1 
- v150v59v1 - v150v118v1 - v150v0v1
= 0

x108x173x1 + x19x173x1 + x5x173x1 + x164x173x1 + x3x173x1 
- v173v59v1 - v173v118v1 - v173v0v1
= 0
x62x173x3 + x52x173x3 + x55x173x3 + x76x173x3 + x134x173x3 + x98x173x3 + x3x173x3 
= 0


1X3 - x108x3x1 - x19x3x1 - x5x3x1 - x164x3x1 = 0
1X3 - x62x3x3 - x52x3x3 - x55x3x3 - x76x3x3 - x134x3x3 - x98x3x3 = 0
2X9 - x62x9x2 - x115x9x2 - x194x9x2 - x167x9x2 - x76x9x2 - x134x9x2 = 0
2X59 - x108x59x1 - x19x59x1 - x5x59x1 - x164x59x1 = 0
1X118 - x108x118x1 - x19x118x1 - x5x118x1 - x164x118x1 - x59x118x1 - x150x118x1 = 0
1X118 - x62x118x2 - x115x118x2 - x194x118x2 - x167x118x2 - x76x118x2 - x134x118x2 = 0
2X130 - x62x130x2 - x115x130x2 - x194x130x2 - x167x130x2 - x76x130x2 - x134x130x2 = 0
2X150 - x108x150x1 - x19x150x1 - x5x150x1 - x164x150x1 = 0
1X173 - x108x173x1 - x19x173x1 - x5x173x1 - x164x173x1 - x3x173x1 = 0
1X173 - x62x173x3 - x52x173x3 - x55x173x3 - x76x173x3 - x134x173x3 - x98x173x3 - x3x173x3 = 0

1Y3 - y108y3y1 - y19y3y1 - y5y3y1 - y164y3y1 - y59y3y1 - y118y3y1 = 0
1Y3 - y62y3y3 - y52y3y3 - y55y3y3 - y76y3y3 - y134y3y3 - y98y3y3 = 0
2Y9 - y62y9y2 - y115y9y2 - y194y9y2 - y167y9y2 - y76y9y2 - y134y9y2 - y118y9y2 = 0
2Y130 - y62y130y2 - y115y130y2 - y194y130y2 - y167y130y2 - y76y130y2 - y134y130y2 - y118y130y2 = 0
2Y150 - y108y150y1 - y19y150y1 - y5y150y1 - y164y150y1 - y59y150y1 - y118y150y1 = 0
1Y173 - y108y173y1 - y19y173y1 - y5y173y1 - y164y173y1 - y3y173y1 - y59y173y1 - y118y173y1 - y150y173y1 = 0
1Y173 - y62y173y3 - y52y173y3 - y55y173y3 - y76y173y3 - y134y173y3 - y98y173y3 - y3y173y3 = 0

1Z118 - z108z118z1 - z19z118z1 - z5z118z1 - z164z118z1 - z3z118z1 - z59z118z1 - z150z118z1 - z173z118z1 = 0
1Z118 - z62z118z2 - z115z118z2 - z194z118z2 - z167z118z2 - z76z118z2 - z134z118z2 - z9z118z2 - z130z118z2 = 0
2Z150 - z108z150z1 - z19z150z1 - z5z150z1 - z164z150z1 - z3z150z1 - z59z150z1 - z173z150z1 = 0

2V59 - v108v59v1 - v19v59v1 - v5v59v1 - v164v59v1 - v3v59v1 - v150v59v1 - v173v59v1 = 0
1V118 - v108v118v1 - v19v118v1 - v5v118v1 - v164v118v1 - v3v118v1 - v59v118v1 - v150v118v1 - v173v118v1 = 0
1V118 - v62v118v2 - v115v118v2 - v194v118v2 - v167v118v2 - v76v118v2 - v134v118v2 - v9v118v2 - v130v118v2 = 0


s108 - s3 + 6.119532a108a3a1 <= 4.92
s108 - s59 + 6.553403a108a59a1 <= 4.92
s108 - s118 + 6.538175a108a118a1 <= 4.92
s108 - s150 + 6.379512a108a150a1 <= 4.92
s108 - s173 + 6.259688a108a173a1 <= 4.92
s62 - s3 + 6.549713a62a3a3 <= 4.98
s62 - s9 + 6.695924a62a9a2 <= 4.98
s62 - s118 + 6.432167a62a118a2 <= 4.98
s62 - s130 + 6.703034a62a130a2 <= 4.98
s62 - s173 + 6.656023a62a173a3 <= 4.98
s52 - s3 + 5.957686a52a3a3 <= 4.70
s52 - s173 + 6.103803a52a173a3 <= 4.70
s19 - s3 + 6.104362a19a3a1 <= 4.53
s19 - s59 + 5.832857a19a59a1 <= 4.53
s19 - s118 + 5.969704a19a118a1 <= 4.53
s19 - s150 + 6.005718a19a150a1 <= 4.53
s19 - s173 + 6.206236a19a173a1 <= 4.53
s5 - s3 + 6.856565a5a3a1 <= 4.98
s5 - s59 + 6.570786a5a59a1 <= 4.98
s5 - s118 + 6.713203a5a118a1 <= 4.98
s5 - s150 + 6.768954a5a150a1 <= 4.98
s5 - s173 + 6.969204a5a173a1 <= 4.98
s115 - s9 + 6.391493a115a9a2 <= 5.15
s115 - s118 + 6.682983a115a118a2 <= 5.15
s115 - s130 + 6.406222a115a130a2 <= 5.15
s194 - s9 + 6.181085a194a9a2 <= 4.83
s194 - s118 + 6.215539a194a118a2 <= 4.83
s194 - s130 + 6.191531a194a130a2 <= 4.83
s55 - s3 + 6.549279a55a3a3 <= 5.16
s55 - s173 + 6.651803a55a173a3 <= 5.16
s164 - s3 + 6.425065a164a3a1 <= 5.31
s164 - s59 + 6.677122a164a59a1 <= 5.31
s164 - s118 + 6.660263a164a118a1 <= 5.31
s164 - s150 + 6.511988a164a150a1 <= 5.31
s164 - s173 + 6.545530a164a173a1 <= 5.31
s167 - s9 + 6.078968a167a9a2 <= 4.88
s167 - s118 + 6.219048a167a118a2 <= 4.88
s167 - s130 + 6.086649a167a130a2 <= 4.88
s76 - s3 + 6.964085a76a3a3 <= 5.90
s76 - s9 + 7.091938a76a9a2 <= 5.90
s76 - s118 + 7.272264a76a118a2 <= 5.90
s76 - s130 + 7.101062a76a130a2 <= 5.90
s76 - s173 + 7.071284a76a173a3 <= 5.90
s134 - s3 + 6.935602a134a3a3 <= 5.79
s134 - s9 + 6.999338a134a9a2 <= 5.79
s134 - s118 + 7.076744a134a118a2 <= 5.79
s134 - s130 + 7.002603a134a130a2 <= 5.79
s134 - s173 + 6.947339a134a173a3 <= 5.79
s98 - s3 + 5.122358a98a3a3 <= 3.66
s98 - s173 + 5.250653a98a173a3 <= 3.66
s3 - s173 + 7.453077a3a173a1 <= 6.28
s3 - s173 + 7.453077a3a173a3 <= 6.28
s59 - s118 + 7.462517a59a118a1 <= 6.32
s150 - s118 + 7.277199a150a118a1 <= 6.11

t108 - t3 + 6.119532b108b3b1 <= 4.92
t108 - t150 + 6.379512b108b150b1 <= 4.92
t108 - t173 + 6.259688b108b173b1 <= 4.92
t62 - t3 + 6.549713b62b3b3 <= 4.98
t62 - t9 + 6.695924b62b9b2 <= 4.98
t62 - t130 + 6.703034b62b130b2 <= 4.98
t62 - t173 + 6.656023b62b173b3 <= 4.98
t52 - t3 + 5.957686b52b3b3 <= 4.70
t52 - t173 + 6.103803b52b173b3 <= 4.70
t19 - t3 + 6.104362b19b3b1 <= 4.53
t19 - t150 + 6.005718b19b150b1 <= 4.53
t19 - t173 + 6.206236b19b173b1 <= 4.53
t5 - t3 + 6.856565b5b3b1 <= 4.98
t5 - t150 + 6.768954b5b150b1 <= 4.98
t5 - t173 + 6.969204b5b173b1 <= 4.98
t115 - t9 + 6.391493b115b9b2 <= 5.15
t115 - t130 + 6.406222b115b130b2 <= 5.15
t194 - t9 + 6.181085b194b9b2 <= 4.83
t194 - t130 + 6.191531b194b130b2 <= 4.83
t55 - t3 + 6.549279b55b3b3 <= 5.16
t55 - t173 + 6.651803b55b173b3 <= 5.16
t164 - t3 + 6.425065b164b3b1 <= 5.31
t164 - t150 + 6.511988b164b150b1 <= 5.31
t164 - t173 + 6.545530b164b173b1 <= 5.31
t167 - t9 + 6.078968b167b9b2 <= 4.88
t167 - t130 + 6.086649b167b130b2 <= 4.88
t76 - t3 + 6.964085b76b3b3 <= 5.90
t76 - t9 + 7.091938b76b9b2 <= 5.90
t76 - t130 + 7.101062b76b130b2 <= 5.90
t76 - t173 + 7.071284b76b173b3 <= 5.90
t134 - t3 + 6.935602b134b3b3 <= 5.79
t134 - t9 + 6.999338b134b9b2 <= 5.79
t134 - t130 + 7.002603b134b130b2 <= 5.79
t134 - t173 + 6.947339b134b173b3 <= 5.79
t98 - t3 + 5.122358b98b3b3 <= 3.66
t98 - t173 + 5.250653b98b173b3 <= 3.66
t3 - t173 + 7.453077b3b173b1 <= 6.28
t3 - t173 + 7.453077b3b173b3 <= 6.28
t59 - t3 + 21.465714b59b3b1 <= 20.00
t59 - t150 + 21.246758b59b150b1 <= 20.00
t59 - t173 + 21.489988b59b173b1 <= 20.00
t118 - t3 + 21.427967b118b3b1 <= 20.00
t118 - t9 + 21.472534b118b9b2 <= 20.00
t118 - t130 + 21.470131b118b130b2 <= 20.00
t118 - t150 + 21.167198b118b150b1 <= 20.00
t118 - t173 + 21.402714b118b173b1 <= 20.00
t150 - t173 + 7.354768b150b173b1 <= 6.11

u108 - u118 + 6.538175c108c118c1 <= 4.92
u108 - u150 + 6.379512c108c150c1 <= 4.92
u62 - u118 + 6.432167c62c118c2 <= 4.98
u19 - u118 + 5.969704c19c118c1 <= 4.53
u19 - u150 + 6.005718c19c150c1 <= 4.53
u5 - u118 + 6.713203c5c118c1 <= 4.98
u5 - u150 + 6.768954c5c150c1 <= 4.98
u115 - u118 + 6.682983c115c118c2 <= 5.15
u194 - u118 + 6.215539c194c118c2 <= 4.83
u164 - u118 + 6.660263c164c118c1 <= 5.31
u164 - u150 + 6.511988c164c150c1 <= 5.31
u167 - u118 + 6.219048c167c118c2 <= 4.88
u76 - u118 + 7.272264c76c118c2 <= 5.90
u134 - u118 + 7.076744c134c118c2 <= 5.79
u3 - u118 + 21.427967c3c118c1 <= 20.00
u3 - u150 + 21.264154c3c150c1 <= 20.00
u9 - u118 + 21.472534c9c118c2 <= 20.00
u59 - u118 + 21.142517c59c118c1 <= 20.00
u59 - u150 + 21.246758c59c150c1 <= 20.00
u130 - u118 + 21.470131c130c118c2 <= 20.00
u150 - u118 + 7.557199c150c118c1 <= 6.39
u173 - u118 + 21.402714c173c118c1 <= 20.00
u173 - u150 + 21.244768c173c150c1 <= 20.00

r108 - r59 + 6.553403d108d59d1 <= 4.92
r108 - r118 + 6.538175d108d118d1 <= 4.92
r62 - r118 + 6.432167d62d118d2 <= 4.98
r19 - r59 + 5.832857d19d59d1 <= 4.53
r19 - r118 + 5.969704d19d118d1 <= 4.53
r5 - r59 + 6.570786d5d59d1 <= 4.98
r5 - r118 + 6.713203d5d118d1 <= 4.98
r115 - r118 + 6.682983d115d118d2 <= 5.15
r194 - r118 + 6.215539d194d118d2 <= 4.83
r164 - r59 + 6.677122d164d59d1 <= 5.31
r164 - r118 + 6.660263d164d118d1 <= 5.31
r167 - r118 + 6.219048d167d118d2 <= 4.88
r76 - r118 + 7.272264d76d118d2 <= 5.90
r134 - r118 + 7.076744d134d118d2 <= 5.79
r3 - r59 + 21.465714d3d59d1 <= 20.00
r3 - r118 + 21.427967d3d118d1 <= 20.00
r9 - r118 + 21.472534d9d118d2 <= 20.00
r59 - r118 + 7.462517d59d118d1 <= 6.32
r130 - r118 + 21.470131d130d118d2 <= 20.00
r150 - r59 + 21.246758d150d59d1 <= 20.00
r150 - r118 + 21.167198d150d118d1 <= 20.00
r173 - r59 + 21.489988d173d59d1 <= 20.00
r173 - r118 + 21.402714d173d118d1 <= 20.00

x108x3x1 + x19x3x1 + x5x3x1 + x164x3x1 + x62x3x3 + x52x3x3 + x55x3x3 + x76x3x3 + x134x3x3 + x98x3x3 
- x3x173x1 - x3x173x3 
- 2w3 <= 0

x62x9x2 + x115x9x2 + x194x9x2 + x167x9x2 + x76x9x2 + x134x9x2 

- 2w9 <= 0

x108x59x1 + x19x59x1 + x5x59x1 + x164x59x1 
- x59x118x1 
- 2w59 <= 0

x108x118x1 + x19x118x1 + x5x118x1 + x164x118x1 + x59x118x1 + x150x118x1 + x62x118x2 + x115x118x2 + x194x118x2 + x167x118x2 + x76x118x2 + x134x118x2 

- 2w118 <= 0

x62x130x2 + x115x130x2 + x194x130x2 + x167x130x2 + x76x130x2 + x134x130x2 

- 2w130 <= 0

x108x150x1 + x19x150x1 + x5x150x1 + x164x150x1 
- x150x118x1 
- 2w150 <= 0

x108x173x1 + x19x173x1 + x5x173x1 + x164x173x1 + x3x173x1 + x62x173x3 + x52x173x3 + x55x173x3 + x76x173x3 + x134x173x3 + x98x173x3 + x3x173x3 

- 2w173 <= 0

x108x3x1 + x19x3x1 + x5x3x1 + x164x3x1 + x62x3x3 + x52x3x3 + x55x3x3 + x76x3x3 + x134x3x3 + x98x3x3 
- x3x173x1 - x3x173x3 
- w3 >= 0

x62x9x2 + x115x9x2 + x194x9x2 + x167x9x2 + x76x9x2 + x134x9x2 

- w9 >= 0

x108x59x1 + x19x59x1 + x5x59x1 + x164x59x1 
- x59x118x1 
- w59 >= 0

x108x118x1 + x19x118x1 + x5x118x1 + x164x118x1 + x59x118x1 + x150x118x1 + x62x118x2 + x115x118x2 + x194x118x2 + x167x118x2 + x76x118x2 + x134x118x2 

- w118 >= 0

x62x130x2 + x115x130x2 + x194x130x2 + x167x130x2 + x76x130x2 + x134x130x2 

- w130 >= 0

x108x150x1 + x19x150x1 + x5x150x1 + x164x150x1 
- x150x118x1 
- w150 >= 0

x108x173x1 + x19x173x1 + x5x173x1 + x164x173x1 + x3x173x1 + x62x173x3 + x52x173x3 + x55x173x3 + x76x173x3 + x134x173x3 + x98x173x3 + x3x173x3 

- w173 >= 0

s108 - t108 + 4.92w108 <= 4.92
s62 - t62 + 4.98w62 <= 4.98
s52 - t52 + 4.70w52 <= 4.70
s19 - t19 + 4.53w19 <= 4.53
s5 - t5 + 4.98w5 <= 4.98
s115 - t115 + 5.15w115 <= 5.15
s194 - t194 + 4.83w194 <= 4.83
s55 - t55 + 5.16w55 <= 5.16
s164 - t164 + 5.31w164 <= 5.31
s167 - t167 + 4.88w167 <= 4.88
s76 - t76 + 5.90w76 <= 5.90
s134 - t134 + 5.79w134 <= 5.79
s98 - t98 + 3.66w98 <= 3.66
s3 - t3 + 6.28w3 <= 6.28
s9 - t9 + 6.96w9 <= 6.96
s59 - t59 + 6.32w59 <= 6.32
s118 - t118 + 6.66w118 <= 6.66
s130 - t130 + 6.96w130 <= 6.96
s150 - t150 + 6.11w150 <= 6.11
s173 - t173 + 6.55w173 <= 6.55
s108 - u108 + 4.92w108 <= 4.92
s62 - u62 + 4.98w62 <= 4.98
s52 - u52 + 4.70w52 <= 4.70
s19 - u19 + 4.53w19 <= 4.53
s5 - u5 + 4.98w5 <= 4.98
s115 - u115 + 5.15w115 <= 5.15
s194 - u194 + 4.83w194 <= 4.83
s55 - u55 + 5.16w55 <= 5.16
s164 - u164 + 5.31w164 <= 5.31
s167 - u167 + 4.88w167 <= 4.88
s76 - u76 + 5.90w76 <= 5.90
s134 - u134 + 5.79w134 <= 5.79
s98 - u98 + 3.66w98 <= 3.66
s3 - u3 + 6.28w3 <= 6.28
s9 - u9 + 6.96w9 <= 6.96
s59 - u59 + 6.32w59 <= 6.32
s118 - u118 + 6.66w118 <= 6.66
s130 - u130 + 6.96w130 <= 6.96
s150 - u150 + 6.11w150 <= 6.11
s173 - u173 + 6.55w173 <= 6.55
s108 - r108 + 4.92w108 <= 4.92
s62 - r62 + 4.98w62 <= 4.98
s52 - r52 + 4.70w52 <= 4.70
s19 - r19 + 4.53w19 <= 4.53
s5 - r5 + 4.98w5 <= 4.98
s115 - r115 + 5.15w115 <= 5.15
s194 - r194 + 4.83w194 <= 4.83
s55 - r55 + 5.16w55 <= 5.16
s164 - r164 + 5.31w164 <= 5.31
s167 - r167 + 4.88w167 <= 4.88
s76 - r76 + 5.90w76 <= 5.90
s134 - r134 + 5.79w134 <= 5.79
s98 - r98 + 3.66w98 <= 3.66
s3 - r3 + 6.28w3 <= 6.28
s9 - r9 + 6.96w9 <= 6.96
s59 - r59 + 6.32w59 <= 6.32
s118 - r118 + 6.66w118 <= 6.66
s130 - r130 + 6.96w130 <= 6.96
s150 - r150 + 6.11w150 <= 6.11
s173 - r173 + 6.55w173 <= 6.55

s108 - t108 - 4.92w108 >= -4.92
s62 - t62 - 4.98w62 >= -4.98
s52 - t52 - 4.70w52 >= -4.70
s19 - t19 - 4.53w19 >= -4.53
s5 - t5 - 4.98w5 >= -4.98
s115 - t115 - 5.15w115 >= -5.15
s194 - t194 - 4.83w194 >= -4.83
s55 - t55 - 5.16w55 >= -5.16
s164 - t164 - 5.31w164 >= -5.31
s167 - t167 - 4.88w167 >= -4.88
s76 - t76 - 5.90w76 >= -5.90
s134 - t134 - 5.79w134 >= -5.79
s98 - t98 - 3.66w98 >= -3.66
s3 - t3 - 6.28w3 >= -6.28
s9 - t9 - 6.96w9 >= -6.96
s59 - t59 - 20.00w59 >= -20.00
s118 - t118 - 20.00w118 >= -20.00
s130 - t130 - 6.96w130 >= -6.96
s150 - t150 - 6.11w150 >= -6.11
s173 - t173 - 6.55w173 >= -6.55


s108 - u108 - 4.92w108 >= -4.92
s62 - u62 - 4.98w62 >= -4.98
s52 - u52 - 4.70w52 >= -4.70
s19 - u19 - 4.53w19 >= -4.53
s5 - u5 - 4.98w5 >= -4.98
s115 - u115 - 5.15w115 >= -5.15
s194 - u194 - 4.83w194 >= -4.83
s55 - u55 - 5.16w55 >= -5.16
s164 - u164 - 5.31w164 >= -5.31
s167 - u167 - 4.88w167 >= -4.88
s76 - u76 - 5.90w76 >= -5.90
s134 - u134 - 5.79w134 >= -5.79
s98 - u98 - 3.66w98 >= -3.66
s3 - u3 - 20.00w3 >= -20.00
s9 - u9 - 20.00w9 >= -20.00
s59 - u59 - 20.00w59 >= -20.00
s118 - u118 - 6.66w118 >= -6.66
s130 - u130 - 20.00w130 >= -20.00
s150 - u150 - 6.39w150 >= -6.39
s173 - u173 - 20.00w173 >= -20.00


s108 - r108 - 4.92w108 >= -4.92
s62 - r62 - 4.98w62 >= -4.98
s52 - r52 - 4.70w52 >= -4.70
s19 - r19 - 4.53w19 >= -4.53
s5 - r5 - 4.98w5 >= -4.98
s115 - r115 - 5.15w115 >= -5.15
s194 - r194 - 4.83w194 >= -4.83
s55 - r55 - 5.16w55 >= -5.16
s164 - r164 - 5.31w164 >= -5.31
s167 - r167 - 4.88w167 >= -4.88
s76 - r76 - 5.90w76 >= -5.90
s134 - r134 - 5.79w134 >= -5.79
s98 - r98 - 3.66w98 >= -3.66
s3 - r3 - 20.00w3 >= -20.00
s9 - r9 - 20.00w9 >= -20.00
s59 - r59 - 6.32w59 >= -6.32
s118 - r118 - 6.76w118 >= -6.76
s130 - r130 - 20.00w130 >= -20.00
s150 - r150 - 20.00w150 >= -20.00
s173 - r173 - 20.00w173 >= -20.00


s3 + 6.28a108a3a1 <= 12.28
s3 + 6.28a62a3a3 <= 12.28
s3 + 6.28a52a3a3 <= 12.28
s3 + 6.28a19a3a1 <= 12.28
s3 + 6.28a5a3a1 <= 12.28
s3 + 6.28a55a3a3 <= 12.28
s3 + 6.28a164a3a1 <= 12.28
s3 + 6.28a76a3a3 <= 12.28
s3 + 6.28a134a3a3 <= 12.28
s3 + 6.28a98a3a3 <= 12.28
s9 + 6.96a62a9a2 <= 12.96
s9 + 6.96a115a9a2 <= 12.96
s9 + 6.96a194a9a2 <= 12.96
s9 + 6.96a167a9a2 <= 12.96
s9 + 6.96a76a9a2 <= 12.96
s9 + 6.96a134a9a2 <= 12.96
s59 + 6.32a108a59a1 <= 12.32
s59 + 6.32a19a59a1 <= 12.32
s59 + 6.32a5a59a1 <= 12.32
s59 + 6.32a164a59a1 <= 12.32
s118 + 6.66a108a118a1 <= 12.66
s118 + 6.66a62a118a2 <= 12.66
s118 + 6.66a19a118a1 <= 12.66
s118 + 6.66a5a118a1 <= 12.66
s118 + 6.66a115a118a2 <= 12.66
s118 + 6.66a194a118a2 <= 12.66
s118 + 6.66a164a118a1 <= 12.66
s118 + 6.66a167a118a2 <= 12.66
s118 + 6.66a76a118a2 <= 12.66
s118 + 6.66a134a118a2 <= 12.66
s118 + 6.66a59a118a1 <= 12.66
s118 + 6.66a150a118a1 <= 12.66
s130 + 6.96a62a130a2 <= 12.96
s130 + 6.96a115a130a2 <= 12.96
s130 + 6.96a194a130a2 <= 12.96
s130 + 6.96a167a130a2 <= 12.96
s130 + 6.96a76a130a2 <= 12.96
s130 + 6.96a134a130a2 <= 12.96
s150 + 6.11a108a150a1 <= 12.11
s150 + 6.11a19a150a1 <= 12.11
s150 + 6.11a5a150a1 <= 12.11
s150 + 6.11a164a150a1 <= 12.11
s173 + 6.55a108a173a1 <= 12.55
s173 + 6.55a62a173a3 <= 12.55
s173 + 6.55a52a173a3 <= 12.55
s173 + 6.55a19a173a1 <= 12.55
s173 + 6.55a5a173a1 <= 12.55
s173 + 6.55a55a173a3 <= 12.55
s173 + 6.55a164a173a1 <= 12.55
s173 + 6.55a76a173a3 <= 12.55
s173 + 6.55a134a173a3 <= 12.55
s173 + 6.55a98a173a3 <= 12.55
s173 + 6.55a3a173a1 <= 12.55
s173 + 6.55a3a173a3 <= 12.55

u118 - 6.0c108c118c1 > 0
u118 - 6.0c62c118c2 > 0
u118 - 6.0c19c118c1 > 0
u118 - 6.0c5c118c1 > 0
u118 - 6.0c115c118c2 > 0
u118 - 6.0c194c118c2 > 0
u118 - 6.0c164c118c1 > 0
u118 - 6.0c167c118c2 > 0
u118 - 6.0c76c118c2 > 0
u118 - 6.0c134c118c2 > 0
u118 - 6.0c3c118c1 > 0
u118 - 6.0c9c118c2 > 0
u118 - 6.0c59c118c1 > 0
u118 - 6.0c130c118c2 > 0
u118 - 6.0c150c118c1 > 0
u118 - 6.0c173c118c1 > 0
u150 - 6.0c108c150c1 > 0
u150 - 6.0c19c150c1 > 0
u150 - 6.0c5c150c1 > 0
u150 - 6.0c164c150c1 > 0
u150 - 6.0c3c150c1 > 0
u150 - 6.0c59c150c1 > 0
u150 - 6.0c173c150c1 > 0

r59 - 6.0d108d59d1 > 0
r59 - 6.0d19d59d1 > 0
r59 - 6.0d5d59d1 > 0
r59 - 6.0d164d59d1 > 0
r59 - 6.0d3d59d1 > 0
r59 - 6.0d150d59d1 > 0
r59 - 6.0d173d59d1 > 0
r118 - 6.0d108d118d1 > 0
r118 - 6.0d62d118d2 > 0
r118 - 6.0d19d118d1 > 0
r118 - 6.0d5d118d1 > 0
r118 - 6.0d115d118d2 > 0
r118 - 6.0d194d118d2 > 0
r118 - 6.0d164d118d1 > 0
r118 - 6.0d167d118d2 > 0
r118 - 6.0d76d118d2 > 0
r118 - 6.0d134d118d2 > 0
r118 - 6.0d3d118d1 > 0
r118 - 6.0d9d118d2 > 0
r118 - 6.0d59d118d1 > 0
r118 - 6.0d130d118d2 > 0
r118 - 6.0d150d118d1 > 0
r118 - 6.0d173d118d1 > 0


a108a3a1 + b108b3b1 <= 1
a62a3a3 + b62b3b3 <= 1
a52a3a3 + b52b3b3 <= 1
a19a3a1 + b19b3b1 <= 1
a5a3a1 + b5b3b1 <= 1
a55a3a3 + b55b3b3 <= 1
a164a3a1 + b164b3b1 <= 1
a76a3a3 + b76b3b3 <= 1
a134a3a3 + b134b3b3 <= 1
a98a3a3 + b98b3b3 <= 1
a62a9a2 + b62b9b2 <= 1
a115a9a2 + b115b9b2 <= 1
a194a9a2 + b194b9b2 <= 1
a167a9a2 + b167b9b2 <= 1
a76a9a2 + b76b9b2 <= 1
a134a9a2 + b134b9b2 <= 1
a108a59a1 + b108b59b1 <= 1
a19a59a1 + b19b59b1 <= 1
a5a59a1 + b5b59b1 <= 1
a164a59a1 + b164b59b1 <= 1
a108a118a1 + b108b118b1 <= 1
a62a118a2 + b62b118b2 <= 1
a19a118a1 + b19b118b1 <= 1
a5a118a1 + b5b118b1 <= 1
a115a118a2 + b115b118b2 <= 1
a194a118a2 + b194b118b2 <= 1
a164a118a1 + b164b118b1 <= 1
a167a118a2 + b167b118b2 <= 1
a76a118a2 + b76b118b2 <= 1
a134a118a2 + b134b118b2 <= 1
a59a118a1 + b59b118b1 <= 1
a150a118a1 + b150b118b1 <= 1
a62a130a2 + b62b130b2 <= 1
a115a130a2 + b115b130b2 <= 1
a194a130a2 + b194b130b2 <= 1
a167a130a2 + b167b130b2 <= 1
a76a130a2 + b76b130b2 <= 1
a134a130a2 + b134b130b2 <= 1
a108a150a1 + b108b150b1 <= 1
a19a150a1 + b19b150b1 <= 1
a5a150a1 + b5b150b1 <= 1
a164a150a1 + b164b150b1 <= 1
a108a173a1 + b108b173b1 <= 1
a62a173a3 + b62b173b3 <= 1
a52a173a3 + b52b173b3 <= 1
a19a173a1 + b19b173b1 <= 1
a5a173a1 + b5b173b1 <= 1
a55a173a3 + b55b173b3 <= 1
a164a173a1 + b164b173b1 <= 1
a76a173a3 + b76b173b3 <= 1
a134a173a3 + b134b173b3 <= 1
a98a173a3 + b98b173b3 <= 1
a3a173a1 + b3b173b1 <= 1
a3a173a3 + b3b173b3 <= 1


a108a3a1 + c108c3c1 <= 1
a62a3a3 + c62c3c3 <= 1
a52a3a3 + c52c3c3 <= 1
a19a3a1 + c19c3c1 <= 1
a5a3a1 + c5c3c1 <= 1
a55a3a3 + c55c3c3 <= 1
a164a3a1 + c164c3c1 <= 1
a76a3a3 + c76c3c3 <= 1
a134a3a3 + c134c3c3 <= 1
a98a3a3 + c98c3c3 <= 1
a62a9a2 + c62c9c2 <= 1
a115a9a2 + c115c9c2 <= 1
a194a9a2 + c194c9c2 <= 1
a167a9a2 + c167c9c2 <= 1
a76a9a2 + c76c9c2 <= 1
a134a9a2 + c134c9c2 <= 1
a108a59a1 + c108c59c1 <= 1
a19a59a1 + c19c59c1 <= 1
a5a59a1 + c5c59c1 <= 1
a164a59a1 + c164c59c1 <= 1
a108a118a1 + c108c118c1 <= 1
a62a118a2 + c62c118c2 <= 1
a19a118a1 + c19c118c1 <= 1
a5a118a1 + c5c118c1 <= 1
a115a118a2 + c115c118c2 <= 1
a194a118a2 + c194c118c2 <= 1
a164a118a1 + c164c118c1 <= 1
a167a118a2 + c167c118c2 <= 1
a76a118a2 + c76c118c2 <= 1
a134a118a2 + c134c118c2 <= 1
a59a118a1 + c59c118c1 <= 1
a150a118a1 + c150c118c1 <= 1
a62a130a2 + c62c130c2 <= 1
a115a130a2 + c115c130c2 <= 1
a194a130a2 + c194c130c2 <= 1
a167a130a2 + c167c130c2 <= 1
a76a130a2 + c76c130c2 <= 1
a134a130a2 + c134c130c2 <= 1
a108a150a1 + c108c150c1 <= 1
a19a150a1 + c19c150c1 <= 1
a5a150a1 + c5c150c1 <= 1
a164a150a1 + c164c150c1 <= 1
a108a173a1 + c108c173c1 <= 1
a62a173a3 + c62c173c3 <= 1
a52a173a3 + c52c173c3 <= 1
a19a173a1 + c19c173c1 <= 1
a5a173a1 + c5c173c1 <= 1
a55a173a3 + c55c173c3 <= 1
a164a173a1 + c164c173c1 <= 1
a76a173a3 + c76c173c3 <= 1
a134a173a3 + c134c173c3 <= 1
a98a173a3 + c98c173c3 <= 1
a3a173a1 + c3c173c1 <= 1
a3a173a3 + c3c173c3 <= 1


a108a3a1 + d108d3d1 <= 1
a62a3a3 + d62d3d3 <= 1
a52a3a3 + d52d3d3 <= 1
a19a3a1 + d19d3d1 <= 1
a5a3a1 + d5d3d1 <= 1
a55a3a3 + d55d3d3 <= 1
a164a3a1 + d164d3d1 <= 1
a76a3a3 + d76d3d3 <= 1
a134a3a3 + d134d3d3 <= 1
a98a3a3 + d98d3d3 <= 1
a62a9a2 + d62d9d2 <= 1
a115a9a2 + d115d9d2 <= 1
a194a9a2 + d194d9d2 <= 1
a167a9a2 + d167d9d2 <= 1
a76a9a2 + d76d9d2 <= 1
a134a9a2 + d134d9d2 <= 1
a108a59a1 + d108d59d1 <= 1
a19a59a1 + d19d59d1 <= 1
a5a59a1 + d5d59d1 <= 1
a164a59a1 + d164d59d1 <= 1
a108a118a1 + d108d118d1 <= 1
a62a118a2 + d62d118d2 <= 1
a19a118a1 + d19d118d1 <= 1
a5a118a1 + d5d118d1 <= 1
a115a118a2 + d115d118d2 <= 1
a194a118a2 + d194d118d2 <= 1
a164a118a1 + d164d118d1 <= 1
a167a118a2 + d167d118d2 <= 1
a76a118a2 + d76d118d2 <= 1
a134a118a2 + d134d118d2 <= 1
a59a118a1 + d59d118d1 <= 1
a150a118a1 + d150d118d1 <= 1
a62a130a2 + d62d130d2 <= 1
a115a130a2 + d115d130d2 <= 1
a194a130a2 + d194d130d2 <= 1
a167a130a2 + d167d130d2 <= 1
a76a130a2 + d76d130d2 <= 1
a134a130a2 + d134d130d2 <= 1
a108a150a1 + d108d150d1 <= 1
a19a150a1 + d19d150d1 <= 1
a5a150a1 + d5d150d1 <= 1
a164a150a1 + d164d150d1 <= 1
a108a173a1 + d108d173d1 <= 1
a62a173a3 + d62d173d3 <= 1
a52a173a3 + d52d173d3 <= 1
a19a173a1 + d19d173d1 <= 1
a5a173a1 + d5d173d1 <= 1
a55a173a3 + d55d173d3 <= 1
a164a173a1 + d164d173d1 <= 1
a76a173a3 + d76d173d3 <= 1
a134a173a3 + d134d173d3 <= 1
a98a173a3 + d98d173d3 <= 1
a3a173a1 + d3d173d1 <= 1
a3a173a3 + d3d173d3 <= 1

x108x3x1 - 1a108a3a1 <= 0
x108x59x1 - 2a108a59a1 <= 0
x108x118x1 - 1a108a118a1 <= 0
x108x150x1 - 2a108a150a1 <= 0
x108x173x1 - 1a108a173a1 <= 0
x62x3x3 - 1a62a3a3 <= 0
x62x9x2 - 2a62a9a2 <= 0
x62x118x2 - 1a62a118a2 <= 0
x62x130x2 - 2a62a130a2 <= 0
x62x173x3 - 1a62a173a3 <= 0
x52x3x3 - 1a52a3a3 <= 0
x52x173x3 - 1a52a173a3 <= 0
x19x3x1 - 1a19a3a1 <= 0
x19x59x1 - 2a19a59a1 <= 0
x19x118x1 - 1a19a118a1 <= 0
x19x150x1 - 2a19a150a1 <= 0
x19x173x1 - 1a19a173a1 <= 0
x5x3x1 - 1a5a3a1 <= 0
x5x59x1 - 2a5a59a1 <= 0
x5x118x1 - 1a5a118a1 <= 0
x5x150x1 - 2a5a150a1 <= 0
x5x173x1 - 1a5a173a1 <= 0
x115x9x2 - 2a115a9a2 <= 0
x115x118x2 - 1a115a118a2 <= 0
x115x130x2 - 2a115a130a2 <= 0
x194x9x2 - 2a194a9a2 <= 0
x194x118x2 - 1a194a118a2 <= 0
x194x130x2 - 2a194a130a2 <= 0
x55x3x3 - 1a55a3a3 <= 0
x55x173x3 - 1a55a173a3 <= 0
x164x3x1 - 1a164a3a1 <= 0
x164x59x1 - 2a164a59a1 <= 0
x164x118x1 - 1a164a118a1 <= 0
x164x150x1 - 2a164a150a1 <= 0
x164x173x1 - 1a164a173a1 <= 0
x167x9x2 - 2a167a9a2 <= 0
x167x118x2 - 1a167a118a2 <= 0
x167x130x2 - 2a167a130a2 <= 0
x76x3x3 - 1a76a3a3 <= 0
x76x9x2 - 2a76a9a2 <= 0
x76x118x2 - 1a76a118a2 <= 0
x76x130x2 - 2a76a130a2 <= 0
x76x173x3 - 1a76a173a3 <= 0
x134x3x3 - 1a134a3a3 <= 0
x134x9x2 - 2a134a9a2 <= 0
x134x118x2 - 1a134a118a2 <= 0
x134x130x2 - 2a134a130a2 <= 0
x134x173x3 - 1a134a173a3 <= 0
x98x3x3 - 1a98a3a3 <= 0
x98x173x3 - 1a98a173a3 <= 0
x3x173x1 - 1a3a173a1 <= 0
x3x173x3 - 1a3a173a3 <= 0
x59x118x1 - 1a59a118a1 <= 0
x150x118x1 - 1a150a118a1 <= 0
y108y3y1 - 1b108b3b1 <= 0
y108y150y1 - 2b108b150b1 <= 0
y108y173y1 - 1b108b173b1 <= 0
y62y3y3 - 1b62b3b3 <= 0
y62y9y2 - 2b62b9b2 <= 0
y62y130y2 - 2b62b130b2 <= 0
y62y173y3 - 1b62b173b3 <= 0
y52y3y3 - 1b52b3b3 <= 0
y52y173y3 - 1b52b173b3 <= 0
y19y3y1 - 1b19b3b1 <= 0
y19y150y1 - 2b19b150b1 <= 0
y19y173y1 - 1b19b173b1 <= 0
y5y3y1 - 1b5b3b1 <= 0
y5y150y1 - 2b5b150b1 <= 0
y5y173y1 - 1b5b173b1 <= 0
y115y9y2 - 2b115b9b2 <= 0
y115y130y2 - 2b115b130b2 <= 0
y194y9y2 - 2b194b9b2 <= 0
y194y130y2 - 2b194b130b2 <= 0
y55y3y3 - 1b55b3b3 <= 0
y55y173y3 - 1b55b173b3 <= 0
y164y3y1 - 1b164b3b1 <= 0
y164y150y1 - 2b164b150b1 <= 0
y164y173y1 - 1b164b173b1 <= 0
y167y9y2 - 2b167b9b2 <= 0
y167y130y2 - 2b167b130b2 <= 0
y76y3y3 - 1b76b3b3 <= 0
y76y9y2 - 2b76b9b2 <= 0
y76y130y2 - 2b76b130b2 <= 0
y76y173y3 - 1b76b173b3 <= 0
y134y3y3 - 1b134b3b3 <= 0
y134y9y2 - 2b134b9b2 <= 0
y134y130y2 - 2b134b130b2 <= 0
y134y173y3 - 1b134b173b3 <= 0
y98y3y3 - 1b98b3b3 <= 0
y98y173y3 - 1b98b173b3 <= 0
y3y173y1 - 1b3b173b1 <= 0
y3y173y3 - 1b3b173b3 <= 0
y59y3y1 - 1b59b3b1 <= 0
y59y150y1 - 2b59b150b1 <= 0
y59y173y1 - 1b59b173b1 <= 0
y118y3y1 - 1b118b3b1 <= 0
y118y9y2 - 2b118b9b2 <= 0
y118y130y2 - 2b118b130b2 <= 0
y118y150y1 - 2b118b150b1 <= 0
y118y173y1 - 1b118b173b1 <= 0
y150y173y1 - 1b150b173b1 <= 0
z108z118z1 - 1c108c118c1 <= 0
z108z150z1 - 2c108c150c1 <= 0
z62z118z2 - 1c62c118c2 <= 0
z19z118z1 - 1c19c118c1 <= 0
z19z150z1 - 2c19c150c1 <= 0
z5z118z1 - 1c5c118c1 <= 0
z5z150z1 - 2c5c150c1 <= 0
z115z118z2 - 1c115c118c2 <= 0
z194z118z2 - 1c194c118c2 <= 0
z164z118z1 - 1c164c118c1 <= 0
z164z150z1 - 2c164c150c1 <= 0
z167z118z2 - 1c167c118c2 <= 0
z76z118z2 - 1c76c118c2 <= 0
z134z118z2 - 1c134c118c2 <= 0
z3z118z1 - 1c3c118c1 <= 0
z3z150z1 - 2c3c150c1 <= 0
z9z118z2 - 1c9c118c2 <= 0
z59z118z1 - 1c59c118c1 <= 0
z59z150z1 - 2c59c150c1 <= 0
z130z118z2 - 1c130c118c2 <= 0
z150z118z1 - 1c150c118c1 <= 0
z173z118z1 - 1c173c118c1 <= 0
z173z150z1 - 2c173c150c1 <= 0
v108v59v1 - 2d108d59d1 <= 0
v108v118v1 - 1d108d118d1 <= 0
v62v118v2 - 1d62d118d2 <= 0
v19v59v1 - 2d19d59d1 <= 0
v19v118v1 - 1d19d118d1 <= 0
v5v59v1 - 2d5d59d1 <= 0
v5v118v1 - 1d5d118d1 <= 0
v115v118v2 - 1d115d118d2 <= 0
v194v118v2 - 1d194d118d2 <= 0
v164v59v1 - 2d164d59d1 <= 0
v164v118v1 - 1d164d118d1 <= 0
v167v118v2 - 1d167d118d2 <= 0
v76v118v2 - 1d76d118d2 <= 0
v134v118v2 - 1d134d118d2 <= 0
v3v59v1 - 2d3d59d1 <= 0
v3v118v1 - 1d3d118d1 <= 0
v9v118v2 - 1d9d118d2 <= 0
v59v118v1 - 1d59d118d1 <= 0
v130v118v2 - 1d130d118d2 <= 0
v150v59v1 - 2d150d59d1 <= 0
v150v118v1 - 1d150d118d1 <= 0
v173v59v1 - 2d173d59d1 <= 0
v173v118v1 - 1d173d118d1 <= 0

Bounds
s108 = 4.919754
t108 = 4.919754
u108 = 4.919754
r108 = 4.919754
s62 = 4.983713
t62 = 4.983713
u62 = 4.983713
r62 = 4.983713
s52 = 4.698285
t52 = 4.698285
u52 = 4.698285
r52 = 4.698285
s19 = 4.529249
t19 = 4.529249
u19 = 4.529249
r19 = 4.529249
s5 = 4.977752
t5 = 4.977752
u5 = 4.977752
r5 = 4.977752
s115 = 5.146907
t115 = 5.146907
u115 = 5.146907
r115 = 5.146907
s194 = 4.826809
t194 = 4.826809
u194 = 4.826809
r194 = 4.826809
s55 = 5.162268
t55 = 5.162268
u55 = 5.162268
r55 = 5.162268
s164 = 5.314110
t164 = 5.314110
u164 = 5.314110
r164 = 5.314110
s167 = 4.877418
t167 = 4.877418
u167 = 4.877418
r167 = 4.877418
s76 = 5.904085
t76 = 5.904085
u76 = 5.904085
r76 = 5.904085
s134 = 5.790000
t134 = 5.790000
u134 = 5.790000
r134 = 5.790000
s98 = 3.657170
t98 = 3.657170
u98 = 3.657170
r98 = 3.657170
5.28 <= s3 <= 6.28
5.96 <= s9 <= 6.96
5.32 <= s59 <= 6.32
5.76 <= s118 <= 6.66
5.96 <= s130 <= 6.96
5.39 <= s150 <= 6.11
5.55 <= s173 <= 6.55

5.28 <= t3 <= 6.28
5.96 <= t9 <= 6.96
0.00 <= t59 <= 20.00
0.00 <= t118 <= 20.00
5.96 <= t130 <= 6.96
5.11 <= t150 <= 6.11
5.55 <= t173 <= 6.55

0.00 <= u3 <= 20.00
0.00 <= u9 <= 20.00
0.00 <= u59 <= 20.00
5.66 <= u118 <= 6.66
0.00 <= u130 <= 20.00
5.39 <= u150 <= 6.39
0.00 <= u173 <= 20.00

0.00 <= r3 <= 20.00
0.00 <= r9 <= 20.00
5.32 <= r59 <= 6.32
5.76 <= r118 <= 6.76
0.00 <= r130 <= 20.00
0.00 <= r150 <= 20.00
0.00 <= r173 <= 20.00

General
x108x3x1 x108x59x1 x108x118x1 x108x150x1 x108x173x1 
x62x3x3 x62x9x2 x62x118x2 x62x130x2 x62x173x3 
x52x3x3 x52x173x3 
x19x3x1 x19x59x1 x19x118x1 x19x150x1 x19x173x1 
x5x3x1 x5x59x1 x5x118x1 x5x150x1 x5x173x1 
x115x9x2 x115x118x2 x115x130x2 
x194x9x2 x194x118x2 x194x130x2 
x55x3x3 x55x173x3 
x164x3x1 x164x59x1 x164x118x1 x164x150x1 x164x173x1 
x167x9x2 x167x118x2 x167x130x2 
x76x3x3 x76x9x2 x76x118x2 x76x130x2 x76x173x3 
x134x3x3 x134x9x2 x134x118x2 x134x130x2 x134x173x3 
x98x3x3 x98x173x3 
x3x173x1 x3x173x3 
x59x118x1 
x150x118x1 

y108y3y1 y108y150y1 y108y173y1 
y62y3y3 y62y9y2 y62y130y2 y62y173y3 
y52y3y3 y52y173y3 
y19y3y1 y19y150y1 y19y173y1 
y5y3y1 y5y150y1 y5y173y1 
y115y9y2 y115y130y2 
y194y9y2 y194y130y2 
y55y3y3 y55y173y3 
y164y3y1 y164y150y1 y164y173y1 
y167y9y2 y167y130y2 
y76y3y3 y76y9y2 y76y130y2 y76y173y3 
y134y3y3 y134y9y2 y134y130y2 y134y173y3 
y98y3y3 y98y173y3 
y3y173y1 y3y173y3 
y59y3y1 y59y150y1 y59y173y1 
y118y3y1 y118y9y2 y118y130y2 y118y150y1 y118y173y1 
y150y173y1 

z108z118z1 z108z150z1 
z62z118z2 
z19z118z1 z19z150z1 
z5z118z1 z5z150z1 
z115z118z2 
z194z118z2 
z164z118z1 z164z150z1 
z167z118z2 
z76z118z2 
z134z118z2 
z3z118z1 z3z150z1 
z9z118z2 
z59z118z1 z59z150z1 
z130z118z2 
z150z118z1 
z173z118z1 z173z150z1 

v108v59v1 v108v118v1 
v62v118v2 
v19v59v1 v19v118v1 
v5v59v1 v5v118v1 
v115v118v2 
v194v118v2 
v164v59v1 v164v118v1 
v167v118v2 
v76v118v2 
v134v118v2 
v3v59v1 v3v118v1 
v9v118v2 
v59v118v1 
v130v118v2 
v150v59v1 v150v118v1 
v173v59v1 v173v118v1 

Binaries
X3 X9 X59 X118 X130 X150 X173 
Y3 Y9 Y130 Y150 Y173 
Z118 Z150 
V59 V118 

w3 w9 w59 w118 w130 w150 w173 

a108a3a1 a108a59a1 a108a118a1 a108a150a1 a108a173a1 
a62a3a3 a62a9a2 a62a118a2 a62a130a2 a62a173a3 
a52a3a3 a52a173a3 
a19a3a1 a19a59a1 a19a118a1 a19a150a1 a19a173a1 
a5a3a1 a5a59a1 a5a118a1 a5a150a1 a5a173a1 
a115a9a2 a115a118a2 a115a130a2 
a194a9a2 a194a118a2 a194a130a2 
a55a3a3 a55a173a3 
a164a3a1 a164a59a1 a164a118a1 a164a150a1 a164a173a1 
a167a9a2 a167a118a2 a167a130a2 
a76a3a3 a76a9a2 a76a118a2 a76a130a2 a76a173a3 
a134a3a3 a134a9a2 a134a118a2 a134a130a2 a134a173a3 
a98a3a3 a98a173a3 
a3a173a1 a3a173a3 
a59a118a1 
a150a118a1 

b108b3b1 b108b150b1 b108b173b1 
b62b3b3 b62b9b2 b62b130b2 b62b173b3 
b52b3b3 b52b173b3 
b19b3b1 b19b150b1 b19b173b1 
b5b3b1 b5b150b1 b5b173b1 
b115b9b2 b115b130b2 
b194b9b2 b194b130b2 
b55b3b3 b55b173b3 
b164b3b1 b164b150b1 b164b173b1 
b167b9b2 b167b130b2 
b76b3b3 b76b9b2 b76b130b2 b76b173b3 
b134b3b3 b134b9b2 b134b130b2 b134b173b3 
b98b3b3 b98b173b3 
b3b173b1 b3b173b3 
b59b3b1 b59b150b1 b59b173b1 
b118b3b1 b118b9b2 b118b130b2 b118b150b1 b118b173b1 
b150b173b1 

c108c118c1 c108c150c1 
c62c118c2 
c19c118c1 c19c150c1 
c5c118c1 c5c150c1 
c115c118c2 
c194c118c2 
c164c118c1 c164c150c1 
c167c118c2 
c76c118c2 
c134c118c2 
c3c118c1 c3c150c1 
c9c118c2 
c59c118c1 c59c150c1 
c130c118c2 
c150c118c1 
c173c118c1 c173c150c1 

d108d59d1 d108d118d1 
d62d118d2 
d19d59d1 d19d118d1 
d5d59d1 d5d118d1 
d115d118d2 
d194d118d2 
d164d59d1 d164d118d1 
d167d118d2 
d76d118d2 
d134d118d2 
d3d59d1 d3d118d1 
d9d118d2 
d59d118d1 
d130d118d2 
d150d59d1 d150d118d1 
d173d59d1 d173d118d1 

End